147254
9,106,97,8,92,23,80,12,93,89,76,58,1,87,28,27,10,59,66,44,43,79,91,60,96,78,3,94,70,101,105,38,104,11,41,67,95,54,71,85,48,73,2,72,82,33,84,53,63,32,7,39,36,37,49,18,15,4,61,103,75,35,51,100,45,25,62,22,86,46,6,77,21,17,90,64,16,20,56,40,88,13,31,52,5,30,29,55,65,98,69,81,42,19,99,68,50,26,47,14,102,24,74,83,57,34